c generated by sgen
p cnf 73 156
-2 -3 -4 0
-1 -3 -4 0
-1 -2 -4 0
-1 -2 -3 0
-6 -7 -8 0
-5 -7 -8 0
-5 -6 -8 0
-5 -6 -7 0
-10 -11 -12 0
-9 -11 -12 0
-9 -10 -12 0
-9 -10 -11 0
-14 -15 -16 0
-13 -15 -16 0
-13 -14 -16 0
-13 -14 -15 0
-18 -19 -20 0
-17 -19 -20 0
-17 -18 -20 0
-17 -18 -19 0
-22 -23 -24 0
-21 -23 -24 0
-21 -22 -24 0
-21 -22 -23 0
-26 -27 -28 0
-25 -27 -28 0
-25 -26 -28 0
-25 -26 -27 0
-30 -31 -32 0
-29 -31 -32 0
-29 -30 -32 0
-29 -30 -31 0
-34 -35 -36 0
-33 -35 -36 0
-33 -34 -36 0
-33 -34 -35 0
-38 -39 -40 0
-37 -39 -40 0
-37 -38 -40 0
-37 -38 -39 0
-42 -43 -44 0
-41 -43 -44 0
-41 -42 -44 0
-41 -42 -43 0
-46 -47 -48 0
-45 -47 -48 0
-45 -46 -48 0
-45 -46 -47 0
-50 -51 -52 0
-49 -51 -52 0
-49 -50 -52 0
-49 -50 -51 0
-54 -55 -56 0
-53 -55 -56 0
-53 -54 -56 0
-53 -54 -55 0
-58 -59 -60 0
-57 -59 -60 0
-57 -58 -60 0
-57 -58 -59 0
-62 -63 -64 0
-61 -63 -64 0
-61 -62 -64 0
-61 -62 -63 0
-66 -67 -68 0
-65 -67 -68 0
-65 -66 -68 0
-65 -66 -67 0
-69 -70 -71 0
-69 -70 -72 0
-69 -70 -73 0
-69 -71 -72 0
-69 -71 -73 0
-69 -72 -73 0
-70 -71 -72 0
-70 -71 -73 0
-70 -72 -73 0
-71 -72 -73 0
10 45 61 0
8 45 61 0
8 10 61 0
8 10 45 0
6 29 25 0
53 29 25 0
53 6 25 0
53 6 29 0
32 17 15 0
49 17 15 0
49 32 15 0
49 32 17 0
40 64 59 0
31 64 59 0
31 40 59 0
31 40 64 0
48 51 57 0
56 51 57 0
56 48 57 0
56 48 51 0
16 36 63 0
65 36 63 0
65 16 63 0
65 16 36 0
68 44 19 0
47 44 19 0
47 68 19 0
47 68 44 0
3 7 73 0
66 7 73 0
66 3 73 0
66 3 7 0
4 62 33 0
27 62 33 0
27 4 33 0
27 4 62 0
41 14 70 0
60 14 70 0
60 41 70 0
60 41 14 0
55 67 72 0
22 67 72 0
22 55 72 0
22 55 67 0
58 20 1 0
23 20 1 0
23 58 1 0
23 58 20 0
46 26 69 0
37 26 69 0
37 46 69 0
37 46 26 0
18 54 9 0
38 54 9 0
38 18 9 0
38 18 54 0
21 12 13 0
28 12 13 0
28 21 13 0
28 21 12 0
11 52 34 0
71 52 34 0
71 11 34 0
71 11 52 0
43 24 30 0
35 24 30 0
35 43 30 0
35 43 24 0
2 50 39 0
2 50 5 0
2 50 42 0
2 39 5 0
2 39 42 0
2 5 42 0
50 39 5 0
50 39 42 0
50 5 42 0
39 5 42 0
